&GLOBAL
  PROJECT rutile_pristine
  PRINT_LEVEL MEDIUM
  RUN_TYPE ENERGY
  ELPA_KERNEL AVX2_BLOCK2
&END GLOBAL

&FORCE_EVAL
  METHOD QS
  STRESS_TENSOR ANALYTICAL
  &DFT
    BASIS_SET_FILE_NAME BASIS_MOLOPT
    BASIS_SET_FILE_NAME BASIS_MOLOPT_UCL
    BASIS_SET_FILE_NAME BASIS_ADMM
    BASIS_SET_FILE_NAME BASIS_ADMM_MOLOPT
    POTENTIAL_FILE_NAME GTH_POTENTIALS
    WFN_RESTART_FILE_NAME rutile_pristine-RESTART.wfn

    CHARGE 0
    MULTIPLICITY 1
    
    &AUXILIARY_DENSITY_MATRIX_METHOD
      METHOD BASIS_PROJECTION
      ADMM_PURIFICATION_METHOD MO_DIAG
    &END AUXILIARY_DENSITY_MATRIX_METHOD
 
    &MGRID
      NGRIDS 4
      CUTOFF 700
      REL_CUTOFF 60
    &END MGRID
    &QS
      EPS_DEFAULT 1.0E-15
      WF_INTERPOLATION PS
      EXTRAPOLATION_ORDER 3
      METHOD GPW
      EPS_PGF_ORB  1.0E-32
    &END QS
    &SCF
      SCF_GUESS RESTART
      EPS_SCF 2.0E-6
      &OT ON
        MINIMIZER CG
        LINESEARCH 3PNT
        PRECONDITIONER FULL_SINGLE_INVERSE
      &END OT
      MAX_SCF 75
      &OUTER_SCF
        MAX_SCF 7
        EPS_SCF 2.0E-6
      &END OUTER_SCF
    &END SCF

    &XC
      &XC_FUNCTIONAL PBE
	&PBE
          SCALE_X 0.885
          SCALE_C 1.00
	&END PBE
        &PBE_HOLE_T_C_LR
          CUTOFF_RADIUS 5.5
          SCALE_X 0.115
        &END PBE_HOLE_T_C_LR
      &END XC_FUNCTIONAL
      &HF
        FRACTION 0.115
        &SCREENING
          EPS_SCHWARZ 1.0E-6
          SCREEN_ON_INITIAL_P FALSE
        &END SCREENING
        &INTERACTION_POTENTIAL
          POTENTIAL_TYPE TRUNCATED
          CUTOFF_RADIUS 5.5
          T_C_G_DATA t_c_g.dat
        &END INTERACTION_POTENTIAL
        &MEMORY
          MAX_MEMORY 1500
          EPS_STORAGE_SCALING 0.1
        &END MEMORY
      &END HF
    &END XC
     &END DFT
  &SUBSYS
    &CELL
      ABC 13.018 11.849 40.444
      ALPHA_BETA_GAMMA 90.0000 90.0000 90.0000
      PERIODIC XYZ
    &END CELL    
    &TOPOLOGY
      COORDINATE XYZ
      COORD_FILE_NAME rutile_pristine_relaxed.xyz
    &END TOPOLOGY

    &PRINT
      &ATOMIC_COORDINATES ON
      &END
    &END
    &KIND Ti
      BASIS_SET DZVP-MOLOPT-SR-GTH
      BASIS_SET AUX_FIT cFIT10
      POTENTIAL GTH-PBE-q12
    &END
    &KIND O
      BASIS_SET DZVP-MOLOPT-GTH
      BASIS_SET AUX_FIT cFIT3
      POTENTIAL GTH-PBE-q6
    &END
    &KIND H
      BASIS_SET DZVP-MOLOPT-GTH
      BASIS_SET AUX_FIT  cFIT3
      POTENTIAL GTH-PBE-q1
    &END

  &END SUBSYS
&END FORCE_EVAL

&MOTION
  &GEO_OPT
    MAX_DR 1.5E-3
    MAX_FORCE 2.25E-4 
    OPTIMIZER BFGS
  &END GEO_OPT
&END MOTION
